p cnf 180 589
1 2 3 4 5 6 7 8 9 10 11 12 0
13 14 15 16 17 18 19 20 21 22 23 24 0
32 33 34 35 36 25 26 27 28 29 30 31 0
37 38 39 40 41 42 43 44 45 46 47 48 0
49 50 51 52 53 54 55 56 57 58 59 60 0
64 65 66 67 68 69 70 71 72 61 62 63 0
73 74 75 76 77 78 79 80 81 82 83 84 0
96 85 86 87 88 89 90 91 92 93 94 95 0
97 98 99 100 101 102 103 104 105 106 107 108 0
109 110 111 112 113 114 115 116 117 118 119 120 0
128 129 130 131 132 121 122 123 124 125 126 127 0
133 134 135 136 137 138 139 140 141 142 143 144 0
145 146 147 148 149 150 151 152 153 154 155 156 0
-13 -1 0
-1 -25 0
-157 -1 0
-13 -25 0
-13 -157 0
-157 -25 0
-37 -49 0
-37 -61 0
-158 -37 0
-61 -49 0
-158 -49 0
-158 -61 0
-85 -73 0
-97 -73 0
-109 -73 0
-121 -73 0
-133 -73 0
-145 -73 0
157 -73 0
158 -73 0
-85 -97 0
-85 -109 0
-85 -121 0
-85 -133 0
-85 -145 0
-85 157 0
-85 158 0
-109 -97 0
-121 -97 0
-133 -97 0
-145 -97 0
157 -97 0
158 -97 0
-109 -121 0
-109 -133 0
-109 -145 0
-109 157 0
-109 158 0
-133 -121 0
-145 -121 0
157 -121 0
158 -121 0
-133 -145 0
-133 157 0
-133 158 0
157 -145 0
158 -145 0
157 158 0
-14 -2 0
-2 -26 0
-159 -2 0
-14 -26 0
-159 -14 0
-159 -26 0
-38 -50 0
-62 -38 0
-160 -38 0
-62 -50 0
-160 -50 0
-160 -62 0
-86 -74 0
-98 -74 0
-110 -74 0
-122 -74 0
-134 -74 0
-146 -74 0
-74 159 0
160 -74 0
-86 -98 0
-86 -110 0
-86 -122 0
-86 -134 0
-86 -146 0
-86 159 0
160 -86 0
-110 -98 0
-122 -98 0
-134 -98 0
-146 -98 0
-98 159 0
160 -98 0
-110 -122 0
-110 -134 0
-110 -146 0
-110 159 0
160 -110 0
-134 -122 0
-146 -122 0
-122 159 0
160 -122 0
-134 -146 0
-134 159 0
160 -134 0
-146 159 0
160 -146 0
160 159 0
-15 -3 0
-27 -3 0
-3 -161 0
-15 -27 0
-15 -161 0
-27 -161 0
-39 -51 0
-39 -63 0
-39 -162 0
-63 -51 0
-51 -162 0
-63 -162 0
-87 -75 0
-75 -99 0
-111 -75 0
-75 -123 0
-135 -75 0
-147 -75 0
161 -75 0
162 -75 0
-87 -99 0
-87 -111 0
-87 -123 0
-87 -135 0
-87 -147 0
-87 161 0
-87 162 0
-111 -99 0
-99 -123 0
-135 -99 0
-147 -99 0
161 -99 0
162 -99 0
-111 -123 0
-111 -135 0
-111 -147 0
-111 161 0
-111 162 0
-135 -123 0
-147 -123 0
161 -123 0
162 -123 0
-135 -147 0
-135 161 0
-135 162 0
161 -147 0
162 -147 0
161 162 0
-16 -4 0
-4 -28 0
-4 -163 0
-16 -28 0
-16 -163 0
-28 -163 0
-40 -52 0
-40 -64 0
-40 -164 0
-64 -52 0
-52 -164 0
-64 -164 0
-88 -76 0
-100 -76 0
-112 -76 0
-124 -76 0
-136 -76 0
-148 -76 0
163 -76 0
164 -76 0
-88 -100 0
-88 -112 0
-88 -124 0
-88 -136 0
-88 -148 0
-88 163 0
-88 164 0
-112 -100 0
-124 -100 0
-136 -100 0
-148 -100 0
163 -100 0
164 -100 0
-112 -124 0
-112 -136 0
-112 -148 0
-112 163 0
-112 164 0
-136 -124 0
-148 -124 0
163 -124 0
164 -124 0
-136 -148 0
-136 163 0
-136 164 0
163 -148 0
164 -148 0
163 164 0
-5 -17 0
-5 -29 0
-165 -5 0
-29 -17 0
-165 -17 0
-165 -29 0
-53 -41 0
-65 -41 0
-166 -41 0
-53 -65 0
-166 -53 0
-166 -65 0
-77 -89 0
-77 -101 0
-77 -113 0
-77 -125 0
-77 -137 0
-77 -149 0
-77 165 0
-77 166 0
-101 -89 0
-113 -89 0
-125 -89 0
-137 -89 0
-149 -89 0
165 -89 0
166 -89 0
-101 -113 0
-101 -125 0
-101 -137 0
-101 -149 0
-101 165 0
-101 166 0
-125 -113 0
-137 -113 0
-149 -113 0
165 -113 0
166 -113 0
-125 -137 0
-125 -149 0
-125 165 0
-125 166 0
-149 -137 0
165 -137 0
166 -137 0
-149 165 0
-149 166 0
165 166 0
-6 -18 0
-6 -30 0
-167 -6 0
-30 -18 0
-167 -18 0
-167 -30 0
-54 -42 0
-66 -42 0
-168 -42 0
-54 -66 0
-168 -54 0
-168 -66 0
-78 -90 0
-78 -102 0
-78 -114 0
-78 -126 0
-78 -138 0
-78 -150 0
-78 167 0
168 -78 0
-102 -90 0
-114 -90 0
-126 -90 0
-138 -90 0
-150 -90 0
-90 167 0
168 -90 0
-102 -114 0
-102 -126 0
-102 -138 0
-102 -150 0
-102 167 0
168 -102 0
-126 -114 0
-138 -114 0
-150 -114 0
-114 167 0
168 -114 0
-126 -138 0
-126 -150 0
-126 167 0
168 -126 0
-150 -138 0
-138 167 0
168 -138 0
-150 167 0
168 -150 0
168 167 0
-7 -19 0
-7 -31 0
-7 -169 0
-31 -19 0
-19 -169 0
-31 -169 0
-55 -43 0
-43 -67 0
-43 -170 0
-55 -67 0
-55 -170 0
-67 -170 0
-79 -91 0
-79 -103 0
-79 -115 0
-79 -127 0
-79 -139 0
-79 -151 0
-79 169 0
-79 170 0
-103 -91 0
-91 -115 0
-127 -91 0
-139 -91 0
-151 -91 0
169 -91 0
170 -91 0
-103 -115 0
-103 -127 0
-103 -139 0
-103 -151 0
-103 169 0
-103 170 0
-127 -115 0
-139 -115 0
-151 -115 0
169 -115 0
170 -115 0
-127 -139 0
-127 -151 0
-127 169 0
-127 170 0
-151 -139 0
169 -139 0
170 -139 0
-151 169 0
-151 170 0
169 170 0
-8 -20 0
-8 -32 0
-8 -171 0
-32 -20 0
-20 -171 0
-32 -171 0
-56 -44 0
-68 -44 0
-44 -172 0
-56 -68 0
-56 -172 0
-68 -172 0
-80 -92 0
-80 -104 0
-80 -116 0
-80 -128 0
-80 -140 0
-80 -152 0
-80 171 0
-80 172 0
-104 -92 0
-116 -92 0
-128 -92 0
-140 -92 0
-152 -92 0
171 -92 0
172 -92 0
-104 -116 0
-104 -128 0
-104 -140 0
-104 -152 0
-104 171 0
-104 172 0
-128 -116 0
-140 -116 0
-152 -116 0
171 -116 0
172 -116 0
-128 -140 0
-128 -152 0
-128 171 0
-128 172 0
-152 -140 0
171 -140 0
172 -140 0
-152 171 0
-152 172 0
171 172 0
-21 -9 0
-33 -9 0
-173 -9 0
-21 -33 0
-173 -21 0
-173 -33 0
-45 -57 0
-45 -69 0
-174 -45 0
-69 -57 0
-174 -57 0
-174 -69 0
-93 -81 0
-105 -81 0
-117 -81 0
-129 -81 0
-141 -81 0
-153 -81 0
173 -81 0
174 -81 0
-93 -105 0
-93 -117 0
-93 -129 0
-93 -141 0
-93 -153 0
-93 173 0
-93 174 0
-117 -105 0
-129 -105 0
-141 -105 0
-153 -105 0
173 -105 0
174 -105 0
-117 -129 0
-117 -141 0
-117 -153 0
-117 173 0
-117 174 0
-141 -129 0
-153 -129 0
173 -129 0
174 -129 0
-141 -153 0
-141 173 0
-141 174 0
173 -153 0
174 -153 0
173 174 0
-22 -10 0
-34 -10 0
-175 -10 0
-22 -34 0
-175 -22 0
-175 -34 0
-46 -58 0
-70 -46 0
-176 -46 0
-70 -58 0
-176 -58 0
-176 -70 0
-94 -82 0
-106 -82 0
-118 -82 0
-130 -82 0
-142 -82 0
-154 -82 0
-82 175 0
176 -82 0
-94 -106 0
-94 -118 0
-94 -130 0
-94 -142 0
-94 -154 0
-94 175 0
176 -94 0
-118 -106 0
-130 -106 0
-142 -106 0
-154 -106 0
-106 175 0
176 -106 0
-118 -130 0
-118 -142 0
-118 -154 0
-118 175 0
176 -118 0
-142 -130 0
-154 -130 0
-130 175 0
176 -130 0
-142 -154 0
-142 175 0
176 -142 0
-154 175 0
176 -154 0
176 175 0
-23 -11 0
-35 -11 0
-11 -177 0
-23 -35 0
-23 -177 0
-35 -177 0
-47 -59 0
-47 -71 0
-47 -178 0
-71 -59 0
-59 -178 0
-71 -178 0
-95 -83 0
-83 -107 0
-119 -83 0
-131 -83 0
-143 -83 0
-155 -83 0
177 -83 0
178 -83 0
-95 -107 0
-95 -119 0
-95 -131 0
-95 -143 0
-95 -155 0
-95 177 0
-95 178 0
-119 -107 0
-131 -107 0
-143 -107 0
-155 -107 0
177 -107 0
178 -107 0
-119 -131 0
-119 -143 0
-119 -155 0
-119 177 0
-119 178 0
-143 -131 0
-155 -131 0
177 -131 0
178 -131 0
-143 -155 0
-143 177 0
-143 178 0
177 -155 0
178 -155 0
177 178 0
-24 -12 0
-36 -12 0
-12 -179 0
-24 -36 0
-24 -179 0
-36 -179 0
-48 -60 0
-48 -72 0
-48 -180 0
-72 -60 0
-60 -180 0
-72 -180 0
-96 -84 0
-108 -84 0
-120 -84 0
-132 -84 0
-144 -84 0
-156 -84 0
179 -84 0
180 -84 0
-96 -108 0
-96 -120 0
-96 -132 0
-96 -144 0
-96 -156 0
-96 179 0
-96 180 0
-120 -108 0
-132 -108 0
-144 -108 0
-156 -108 0
179 -108 0
180 -108 0
-120 -132 0
-120 -144 0
-120 -156 0
-120 179 0
-120 180 0
-144 -132 0
-156 -132 0
179 -132 0
180 -132 0
-144 -156 0
-144 179 0
-144 180 0
179 -156 0
180 -156 0
179 180 0
